; benchmark generated from python API
(set-info :status unknown)
(declare-fun strlen_85_64 () (_ BitVec 64))
(declare-fun args_1_8 () (_ BitVec 8))
(declare-fun strlen_83_64 () (_ BitVec 64))
(declare-fun strncmp_ret_84_32 () (_ BitVec 32))
(declare-fun strncmp_ret_86_32 () (_ BitVec 32))
(declare-fun filesize_file_0_/proc/self/loginuid_88_64 () (_ BitVec 64))
(declare-fun syscall_stub_ioctl_95_32 () (_ BitVec 32))
(declare-fun syscall_stub_newfstatat_124_64 () (_ BitVec 64))
(declare-fun syscall_stub_readlink_160_64 () (_ BitVec 64))
(declare-fun mem_7fffffffffef420_174_8 () (_ BitVec 8))
(declare-fun syscall_stub_newfstatat_220_64 () (_ BitVec 64))
(declare-fun mem_7fffffffffef038_297_64 () (_ BitVec 64))
(declare-fun mem_7fffffffffeefa8_298_64 () (_ BitVec 64))
(declare-fun mem_7fffffffffeefa0_344_64 () (_ BitVec 64))
(declare-fun mem_7fffffffffef030_345_64 () (_ BitVec 64))
(declare-fun mem_7fffffffffef048_398_32 () (_ BitVec 32))
(declare-fun mem_7fffffffffeefc8_430_64 () (_ BitVec 64))
(declare-fun mem_7fffffffffef058_431_64 () (_ BitVec 64))
(declare-fun strlen_986_64 () (_ BitVec 64))
(declare-fun mem_7fffffffffef425_984_64 () (_ BitVec 64))
(declare-fun access_2286_32 () (_ BitVec 32))
(declare-fun access_3256_32 () (_ BitVec 32))
(declare-fun mem_2c_5313_264 () (_ BitVec 264))
(declare-fun strlen_5314_64 () (_ BitVec 64))
(assert
 (let ((?x751 (bvadd (_ bv576460752303357826 64) strlen_85_64)))
 (let (($x69 (= (_ bv0 8) args_1_8)))
 (let ((?x46 (ite $x69 (_ bv576460752303357826 64) (_ bv576460752303357827 64))))
 (= ?x46 ?x751)))))
(assert
 (let ((?x101 (bvadd (_ bv576460752303357826 64) strlen_83_64)))
 (let (($x69 (= (_ bv0 8) args_1_8)))
 (let ((?x46 (ite $x69 (_ bv576460752303357826 64) (_ bv576460752303357827 64))))
 (= ?x46 ?x101)))))
(assert
 (let (($x104 (bvule (_ bv2 64) strlen_83_64)))
 (let (($x48 (= (_ bv2 64) strlen_83_64)))
 (let (($x122 (or $x48 $x104)))
 (let (($x123 (not $x122)))
 (let (($x57 (= (_ bv45 8) args_1_8)))
 (let (($x121 (not $x57)))
 (or $x121 $x123))))))))
(assert
 (= (_ bv1 32) strncmp_ret_84_32))
(assert
 (= (_ bv1 32) strncmp_ret_86_32))
(assert
 true)
(assert
 (let (($x1210 (bvsge (_ bv0 64) filesize_file_0_/proc/self/loginuid_88_64)))
 (let ((?x1217 (ite $x1210 (_ bv0 64) filesize_file_0_/proc/self/loginuid_88_64)))
 (let ((?x1236 ((_ extract 3 0) filesize_file_0_/proc/self/loginuid_88_64)))
 (let ((?x99 (ite $x1210 (_ bv0 4) ?x1236)))
 (let (($x1110 (bvule ?x99 (_ bv12 4))))
 (let ((?x1229 ((_ extract 63 4) filesize_file_0_/proc/self/loginuid_88_64)))
 (let (($x523 (= (_ bv0 60) ?x1229)))
 (let (($x516 (or $x1210 $x523)))
 (let (($x975 (and $x516 $x1110)))
 (let ((?x1169 (ite $x975 ?x1217 (_ bv12 64))))
 (= (_ bv12 64) ?x1169))))))))))))
(assert
 (= (_ bv0 32) syscall_stub_ioctl_95_32))
(assert
 (let ((?x3122 ((_ extract 31 0) syscall_stub_newfstatat_124_64)))
 (bvule ?x3122 (_ bv4294963200 32))))
(assert
 (= (_ bv13 64) syscall_stub_readlink_160_64))
(assert
 (= (_ bv47 8) mem_7fffffffffef420_174_8))
(assert
 (let ((?x116194 ((_ extract 31 0) syscall_stub_newfstatat_220_64)))
 (bvule ?x116194 (_ bv4294963200 32))))
(assert
 (= mem_7fffffffffeefa8_298_64 mem_7fffffffffef038_297_64))
(assert
 (= mem_7fffffffffef030_345_64 mem_7fffffffffeefa0_344_64))
(assert
 (let ((?x278280 ((_ extract 15 12) mem_7fffffffffef048_398_32)))
 (= (_ bv2 4) ?x278280)))
(assert
 (= mem_7fffffffffef058_431_64 mem_7fffffffffeefc8_430_64))
(assert
 (let ((?x448396 (bvadd (_ bv576460752303354917 64) strlen_986_64)))
 (let ((?x448386 ((_ extract 7 0) mem_7fffffffffef425_984_64)))
 (let (($x448379 (= (_ bv0 8) ?x448386)))
 (let ((?x116240 (ite $x448379 (_ bv576460752303354924 64) (_ bv576460752303354925 64))))
 (let ((?x448338 ((_ extract 15 8) mem_7fffffffffef425_984_64)))
 (let (($x442876 (= (_ bv0 8) ?x448338)))
 (let ((?x119400 (ite $x442876 (_ bv576460752303354923 64) ?x116240)))
 (let ((?x448374 ((_ extract 23 16) mem_7fffffffffef425_984_64)))
 (let (($x446240 (= (_ bv0 8) ?x448374)))
 (let ((?x276917 (ite $x446240 (_ bv576460752303354922 64) ?x119400)))
 (let ((?x442858 ((_ extract 31 24) mem_7fffffffffef425_984_64)))
 (let (($x448342 (= (_ bv0 8) ?x442858)))
 (let ((?x276826 (ite $x448342 (_ bv576460752303354921 64) ?x276917)))
 (let ((?x446360 ((_ extract 39 32) mem_7fffffffffef425_984_64)))
 (let (($x448387 (= (_ bv0 8) ?x446360)))
 (let ((?x119860 (ite $x448387 (_ bv576460752303354920 64) ?x276826)))
 (let ((?x448362 ((_ extract 47 40) mem_7fffffffffef425_984_64)))
 (let (($x446494 (= (_ bv0 8) ?x448362)))
 (let ((?x117259 (ite $x446494 (_ bv576460752303354919 64) ?x119860)))
 (let ((?x448389 ((_ extract 55 48) mem_7fffffffffef425_984_64)))
 (let (($x442868 (= (_ bv0 8) ?x448389)))
 (let ((?x119730 (ite $x442868 (_ bv576460752303354918 64) ?x117259)))
 (let ((?x446462 ((_ extract 63 56) mem_7fffffffffef425_984_64)))
 (let (($x446502 (= (_ bv0 8) ?x446462)))
 (let ((?x116346 (ite $x446502 (_ bv576460752303354917 64) ?x119730)))
 (= ?x116346 ?x448396)))))))))))))))))))))))))))
(assert
 (let ((?x448467 (bvadd (_ bv1 64) strlen_986_64)))
 (let ((?x449136 ((_ extract 63 4) ?x448467)))
 (= (_ bv0 60) ?x449136))))
(assert
 (let ((?x449132 ((_ extract 3 0) strlen_986_64)))
 (let ((?x446635 (bvadd (_ bv1 4) ?x449132)))
 (bvule ?x446635 (_ bv9 4)))))
(assert
 (let ((?x448467 (bvadd (_ bv1 64) strlen_986_64)))
 (let (($x448493 (bvule (_ bv31 64) strlen_986_64)))
 (let (($x448643 (bvule strlen_986_64 (_ bv18446744073709551614 64))))
 (let (($x448969 (and $x448643 $x448493)))
 (let ((?x448926 (ite $x448969 (_ bv32 64) ?x448467)))
 (bvule (_ bv1 64) ?x448926)))))))
(assert
 (let (($x448493 (bvule (_ bv31 64) strlen_986_64)))
 (let (($x448726 (not $x448493)))
 (let (($x448643 (bvule strlen_986_64 (_ bv18446744073709551614 64))))
 (let (($x448713 (not $x448643)))
 (or $x448713 $x448726))))))
(assert
 (let (($x475175 (= (_ bv4294967295 32) access_2286_32)))
 (let (($x480510 (= (_ bv0 32) access_2286_32)))
 (or $x480510 $x475175))))
(assert
 (and (distinct (_ bv0 32) access_2286_32) true))
(assert
 (let (($x550435 (= (_ bv4294967295 32) access_3256_32)))
 (let (($x550436 (= (_ bv0 32) access_3256_32)))
 (or $x550436 $x550435))))
(assert
 (= (_ bv0 32) access_3256_32))
(assert
 (let ((?x1290053 ((_ extract 15 8) mem_2c_5313_264)))
 (let (($x1290052 (= (_ bv0 8) ?x1290053)))
 (let ((?x1290051 ((_ extract 23 16) mem_2c_5313_264)))
 (let (($x1290050 (= (_ bv0 8) ?x1290051)))
 (let ((?x1290048 ((_ extract 31 24) mem_2c_5313_264)))
 (let (($x1290047 (= (_ bv0 8) ?x1290048)))
 (let ((?x1290046 ((_ extract 39 32) mem_2c_5313_264)))
 (let (($x1290045 (= (_ bv0 8) ?x1290046)))
 (let ((?x1290044 ((_ extract 47 40) mem_2c_5313_264)))
 (let (($x1290043 (= (_ bv0 8) ?x1290044)))
 (let ((?x1290042 ((_ extract 55 48) mem_2c_5313_264)))
 (let (($x1290041 (= (_ bv0 8) ?x1290042)))
 (let ((?x1290040 ((_ extract 63 56) mem_2c_5313_264)))
 (let (($x1290038 (= (_ bv0 8) ?x1290040)))
 (let ((?x1290037 ((_ extract 71 64) mem_2c_5313_264)))
 (let (($x1290036 (= (_ bv0 8) ?x1290037)))
 (let ((?x1290035 ((_ extract 79 72) mem_2c_5313_264)))
 (let (($x1290034 (= (_ bv0 8) ?x1290035)))
 (let ((?x1290033 ((_ extract 87 80) mem_2c_5313_264)))
 (let (($x1290032 (= (_ bv0 8) ?x1290033)))
 (let ((?x1290031 ((_ extract 95 88) mem_2c_5313_264)))
 (let (($x1290030 (= (_ bv0 8) ?x1290031)))
 (let ((?x1290028 ((_ extract 103 96) mem_2c_5313_264)))
 (let (($x1290027 (= (_ bv0 8) ?x1290028)))
 (let ((?x1290026 ((_ extract 111 104) mem_2c_5313_264)))
 (let (($x1290025 (= (_ bv0 8) ?x1290026)))
 (let ((?x1290024 ((_ extract 119 112) mem_2c_5313_264)))
 (let (($x1290023 (= (_ bv0 8) ?x1290024)))
 (let ((?x1290022 ((_ extract 127 120) mem_2c_5313_264)))
 (let (($x1290021 (= (_ bv0 8) ?x1290022)))
 (let ((?x1290020 ((_ extract 135 128) mem_2c_5313_264)))
 (let (($x1290018 (= (_ bv0 8) ?x1290020)))
 (let ((?x1290017 ((_ extract 143 136) mem_2c_5313_264)))
 (let (($x1290016 (= (_ bv0 8) ?x1290017)))
 (let ((?x1290015 ((_ extract 151 144) mem_2c_5313_264)))
 (let (($x1290014 (= (_ bv0 8) ?x1290015)))
 (let ((?x1290013 ((_ extract 159 152) mem_2c_5313_264)))
 (let (($x1290012 (= (_ bv0 8) ?x1290013)))
 (let ((?x1290011 ((_ extract 167 160) mem_2c_5313_264)))
 (let (($x1290010 (= (_ bv0 8) ?x1290011)))
 (let ((?x1290008 ((_ extract 175 168) mem_2c_5313_264)))
 (let (($x1290007 (= (_ bv0 8) ?x1290008)))
 (let ((?x1290006 ((_ extract 183 176) mem_2c_5313_264)))
 (let (($x1290005 (= (_ bv0 8) ?x1290006)))
 (let ((?x1290004 ((_ extract 191 184) mem_2c_5313_264)))
 (let (($x1290003 (= (_ bv0 8) ?x1290004)))
 (let ((?x1290002 ((_ extract 199 192) mem_2c_5313_264)))
 (let (($x1290001 (= (_ bv0 8) ?x1290002)))
 (let ((?x1290000 ((_ extract 207 200) mem_2c_5313_264)))
 (let (($x1289998 (= (_ bv0 8) ?x1290000)))
 (let ((?x1289997 ((_ extract 215 208) mem_2c_5313_264)))
 (let (($x1289996 (= (_ bv0 8) ?x1289997)))
 (let ((?x1289995 ((_ extract 223 216) mem_2c_5313_264)))
 (let (($x1289994 (= (_ bv0 8) ?x1289995)))
 (let ((?x1289993 ((_ extract 231 224) mem_2c_5313_264)))
 (let (($x1289992 (= (_ bv0 8) ?x1289993)))
 (let ((?x1289991 ((_ extract 239 232) mem_2c_5313_264)))
 (let (($x1289990 (= (_ bv0 8) ?x1289991)))
 (let ((?x1289988 ((_ extract 247 240) mem_2c_5313_264)))
 (let (($x1289987 (= (_ bv0 8) ?x1289988)))
 (let ((?x1289986 ((_ extract 255 248) mem_2c_5313_264)))
 (let (($x1289985 (= (_ bv0 8) ?x1289986)))
 (let ((?x1289983 ((_ extract 263 256) mem_2c_5313_264)))
 (let (($x1289984 (= (_ bv0 8) ?x1289983)))
 (or $x1289984 $x1289985 $x1289987 $x1289990 $x1289992 $x1289994 $x1289996 $x1289998 $x1290001 $x1290003 $x1290005 $x1290007 $x1290010 $x1290012 $x1290014 $x1290016 $x1290018 $x1290021 $x1290023 $x1290025 $x1290027 $x1290030 $x1290032 $x1290034 $x1290036 $x1290038 $x1290041 $x1290043 $x1290045 $x1290047 $x1290050 $x1290052))))))))))))))))))))))))))))))))))))))))))))))))))))))))))))))))))
(assert
 (let ((?x1290053 ((_ extract 15 8) mem_2c_5313_264)))
 (let (($x1290052 (= (_ bv0 8) ?x1290053)))
 (let ((?x1290054 (ite $x1290052 (_ bv75 64) (_ bv0 64))))
 (let ((?x1290051 ((_ extract 23 16) mem_2c_5313_264)))
 (let (($x1290050 (= (_ bv0 8) ?x1290051)))
 (let ((?x1290056 (ite $x1290050 (_ bv74 64) ?x1290054)))
 (let ((?x1290048 ((_ extract 31 24) mem_2c_5313_264)))
 (let (($x1290047 (= (_ bv0 8) ?x1290048)))
 (let ((?x1290057 (ite $x1290047 (_ bv73 64) ?x1290056)))
 (let ((?x1290046 ((_ extract 39 32) mem_2c_5313_264)))
 (let (($x1290045 (= (_ bv0 8) ?x1290046)))
 (let ((?x1290058 (ite $x1290045 (_ bv72 64) ?x1290057)))
 (let ((?x1290044 ((_ extract 47 40) mem_2c_5313_264)))
 (let (($x1290043 (= (_ bv0 8) ?x1290044)))
 (let ((?x1290060 (ite $x1290043 (_ bv71 64) ?x1290058)))
 (let ((?x1290042 ((_ extract 55 48) mem_2c_5313_264)))
 (let (($x1290041 (= (_ bv0 8) ?x1290042)))
 (let ((?x1290061 (ite $x1290041 (_ bv70 64) ?x1290060)))
 (let ((?x1290040 ((_ extract 63 56) mem_2c_5313_264)))
 (let (($x1290038 (= (_ bv0 8) ?x1290040)))
 (let ((?x1290062 (ite $x1290038 (_ bv69 64) ?x1290061)))
 (let ((?x1290037 ((_ extract 71 64) mem_2c_5313_264)))
 (let (($x1290036 (= (_ bv0 8) ?x1290037)))
 (let ((?x1290063 (ite $x1290036 (_ bv68 64) ?x1290062)))
 (let ((?x1290035 ((_ extract 79 72) mem_2c_5313_264)))
 (let (($x1290034 (= (_ bv0 8) ?x1290035)))
 (let ((?x1290064 (ite $x1290034 (_ bv67 64) ?x1290063)))
 (let ((?x1290033 ((_ extract 87 80) mem_2c_5313_264)))
 (let (($x1290032 (= (_ bv0 8) ?x1290033)))
 (let ((?x1290065 (ite $x1290032 (_ bv66 64) ?x1290064)))
 (let ((?x1290031 ((_ extract 95 88) mem_2c_5313_264)))
 (let (($x1290030 (= (_ bv0 8) ?x1290031)))
 (let ((?x1290066 (ite $x1290030 (_ bv65 64) ?x1290065)))
 (let ((?x1290028 ((_ extract 103 96) mem_2c_5313_264)))
 (let (($x1290027 (= (_ bv0 8) ?x1290028)))
 (let ((?x1290067 (ite $x1290027 (_ bv64 64) ?x1290066)))
 (let ((?x1290026 ((_ extract 111 104) mem_2c_5313_264)))
 (let (($x1290025 (= (_ bv0 8) ?x1290026)))
 (let ((?x1290068 (ite $x1290025 (_ bv63 64) ?x1290067)))
 (let ((?x1290024 ((_ extract 119 112) mem_2c_5313_264)))
 (let (($x1290023 (= (_ bv0 8) ?x1290024)))
 (let ((?x1290070 (ite $x1290023 (_ bv62 64) ?x1290068)))
 (let ((?x1290022 ((_ extract 127 120) mem_2c_5313_264)))
 (let (($x1290021 (= (_ bv0 8) ?x1290022)))
 (let ((?x1290071 (ite $x1290021 (_ bv61 64) ?x1290070)))
 (let ((?x1290020 ((_ extract 135 128) mem_2c_5313_264)))
 (let (($x1290018 (= (_ bv0 8) ?x1290020)))
 (let ((?x1290072 (ite $x1290018 (_ bv60 64) ?x1290071)))
 (let ((?x1290017 ((_ extract 143 136) mem_2c_5313_264)))
 (let (($x1290016 (= (_ bv0 8) ?x1290017)))
 (let ((?x1290073 (ite $x1290016 (_ bv59 64) ?x1290072)))
 (let ((?x1290015 ((_ extract 151 144) mem_2c_5313_264)))
 (let (($x1290014 (= (_ bv0 8) ?x1290015)))
 (let ((?x1290074 (ite $x1290014 (_ bv58 64) ?x1290073)))
 (let ((?x1290013 ((_ extract 159 152) mem_2c_5313_264)))
 (let (($x1290012 (= (_ bv0 8) ?x1290013)))
 (let ((?x1290075 (ite $x1290012 (_ bv57 64) ?x1290074)))
 (let ((?x1290011 ((_ extract 167 160) mem_2c_5313_264)))
 (let (($x1290010 (= (_ bv0 8) ?x1290011)))
 (let ((?x1290076 (ite $x1290010 (_ bv56 64) ?x1290075)))
 (let ((?x1290008 ((_ extract 175 168) mem_2c_5313_264)))
 (let (($x1290007 (= (_ bv0 8) ?x1290008)))
 (let ((?x1290077 (ite $x1290007 (_ bv55 64) ?x1290076)))
 (let ((?x1290006 ((_ extract 183 176) mem_2c_5313_264)))
 (let (($x1290005 (= (_ bv0 8) ?x1290006)))
 (let ((?x1290078 (ite $x1290005 (_ bv54 64) ?x1290077)))
 (let ((?x1290004 ((_ extract 191 184) mem_2c_5313_264)))
 (let (($x1290003 (= (_ bv0 8) ?x1290004)))
 (let ((?x1290080 (ite $x1290003 (_ bv53 64) ?x1290078)))
 (let ((?x1290002 ((_ extract 199 192) mem_2c_5313_264)))
 (let (($x1290001 (= (_ bv0 8) ?x1290002)))
 (let ((?x1290081 (ite $x1290001 (_ bv52 64) ?x1290080)))
 (let ((?x1290000 ((_ extract 207 200) mem_2c_5313_264)))
 (let (($x1289998 (= (_ bv0 8) ?x1290000)))
 (let ((?x1290082 (ite $x1289998 (_ bv51 64) ?x1290081)))
 (let ((?x1289997 ((_ extract 215 208) mem_2c_5313_264)))
 (let (($x1289996 (= (_ bv0 8) ?x1289997)))
 (let ((?x1290083 (ite $x1289996 (_ bv50 64) ?x1290082)))
 (let ((?x1289995 ((_ extract 223 216) mem_2c_5313_264)))
 (let (($x1289994 (= (_ bv0 8) ?x1289995)))
 (let ((?x1290084 (ite $x1289994 (_ bv49 64) ?x1290083)))
 (let ((?x1289993 ((_ extract 231 224) mem_2c_5313_264)))
 (let (($x1289992 (= (_ bv0 8) ?x1289993)))
 (let ((?x1290085 (ite $x1289992 (_ bv48 64) ?x1290084)))
 (let ((?x1289991 ((_ extract 239 232) mem_2c_5313_264)))
 (let (($x1289990 (= (_ bv0 8) ?x1289991)))
 (let ((?x1290086 (ite $x1289990 (_ bv47 64) ?x1290085)))
 (let ((?x1289988 ((_ extract 247 240) mem_2c_5313_264)))
 (let (($x1289987 (= (_ bv0 8) ?x1289988)))
 (let ((?x1290087 (ite $x1289987 (_ bv46 64) ?x1290086)))
 (let ((?x1289986 ((_ extract 255 248) mem_2c_5313_264)))
 (let (($x1289985 (= (_ bv0 8) ?x1289986)))
 (let ((?x1290088 (ite $x1289985 (_ bv45 64) ?x1290087)))
 (let ((?x1289983 ((_ extract 263 256) mem_2c_5313_264)))
 (let (($x1289984 (= (_ bv0 8) ?x1289983)))
 (let ((?x1290090 (ite $x1289984 (_ bv44 64) ?x1290088)))
 (let ((?x1290091 (bvsub ?x1290090 (_ bv44 64))))
 (= ?x1290091 strlen_5314_64)))))))))))))))))))))))))))))))))))))))))))))))))))))))))))))))))))))))))))))))))))))))))))))))))))
(assert
 (let ((?x1295918 (bvadd strlen_5314_64 (_ bv1 64))))
 (bvule ?x1295918 (_ bv1024 64))))
(minimize mem_7fffffffffef420_174_8)
(maximize mem_7fffffffffef425_984_64)
(maximize mem_7fffffffffeefc8_430_64)
(minimize mem_7fffffffffef038_297_64)
(minimize syscall_stub_readlink_160_64)
(maximize mem_7fffffffffef030_345_64)
(maximize strlen_5314_64)
(minimize access_3256_32)
(minimize syscall_stub_ioctl_95_32)
(maximize mem_7fffffffffeefa8_298_64)
(maximize mem_7fffffffffef038_297_64)
(minimize filesize_file_0_/proc/self/loginuid_88_64)
(maximize syscall_stub_newfstatat_220_64)
(maximize strlen_83_64)
(minimize mem_7fffffffffef048_398_32)
(maximize strlen_85_64)
(maximize access_3256_32)
(minimize strncmp_ret_86_32)
(minimize mem_2c_5313_264)
(maximize mem_2c_5313_264)
(minimize syscall_stub_newfstatat_220_64)
(maximize mem_7fffffffffef048_398_32)
(minimize syscall_stub_newfstatat_124_64)
(maximize syscall_stub_newfstatat_124_64)
(minimize access_2286_32)
(minimize strlen_83_64)
(maximize mem_7fffffffffef420_174_8)
(maximize filesize_file_0_/proc/self/loginuid_88_64)
(minimize mem_7fffffffffef058_431_64)
(maximize mem_7fffffffffef058_431_64)
(minimize mem_7fffffffffeefa0_344_64)
(maximize mem_7fffffffffeefa0_344_64)
(maximize syscall_stub_readlink_160_64)
(maximize access_2286_32)
(maximize strlen_986_64)
(minimize mem_7fffffffffeefa8_298_64)
(minimize mem_7fffffffffeefc8_430_64)
(maximize args_1_8)
(maximize strncmp_ret_84_32)
(minimize strncmp_ret_84_32)
(maximize syscall_stub_ioctl_95_32)
(check-sat)
(get-objectives)
